S = 9;
start = [|66,0,0,1,49,51,0,0,0,76,0,0,0,0,0,0,46,31,0,0,0,74,0,53,0,24,0,0,0,0,0,0,0,0,0,0,0,0,0,77,0,0,0,0,0,0,0,0,30,0,0,28,0,0,0,0,75,16,61,0,0,27,23,0,0,33,0,37,0,0,22,0,0,0,0,0,0,0,17,6,0|
0,56,0,0,0,0,0,0,0,0,42,0,0,53,0,0,0,0,0,0,0,75,0,0,0,0,0,0,12,0,62,0,0,0,0,59,0,0,0,71,18,1,0,15,41,64,0,0,0,0,0,0,0,0,0,51,0,25,0,0,0,0,0,0,0,61,0,0,79,0,24,74,0,0,0,44,76,45,0,14,0|
22,38,74,14,0,7,0,12,0,51,0,0,0,1,0,50,26,0,19,0,72,0,0,43,67,0,6,8,0,0,20,65,0,41,61,0,0,0,0,0,79,0,0,0,0,0,25,0,0,0,0,0,0,33,0,0,0,29,73,0,0,0,0,0,0,71,52,0,0,0,0,53,10,0,0,0,56,55,0,0,0|
30,0,0,62,31,0,39,24,0,0,0,34,0,41,0,0,20,13,0,46,58,0,7,0,0,11,0,0,0,0,0,0,0,0,54,19,0,44,43,40,52,0,0,0,12,27,0,0,0,2,0,0,16,0,5,0,37,0,0,0,77,0,0,6,0,0,14,26,0,3,0,0,66,0,0,0,73,0,0,0,0|
0,33,0,0,0,0,0,10,52,21,71,0,0,0,0,0,0,12,0,0,0,20,15,79,77,0,57,0,0,0,67,81,34,38,0,0,0,0,0,0,24,51,0,76,0,0,0,6,0,31,0,0,0,36,7,0,0,0,66,47,0,8,30,0,0,0,0,0,0,80,0,0,22,72,49,0,0,0,0,54,70|
0,20,0,0,60,50,0,0,35,0,66,0,0,57,0,0,0,0,28,0,0,9,0,0,10,0,3,25,0,11,43,0,48,0,0,6,0,0,74,0,0,0,0,0,0,81,21,0,55,0,0,0,0,0,0,0,56,1,0,0,59,79,34,13,0,0,0,0,0,0,0,64,51,0,0,0,53,52,0,42,0|
0,0,57,0,0,40,0,0,0,0,0,0,0,52,0,64,0,29,0,0,0,65,0,0,54,0,0,0,39,0,45,9,0,0,0,5,0,33,0,0,0,0,0,56,0,44,0,76,0,15,0,72,0,0,0,0,0,0,36,24,43,28,0,0,0,78,0,35,62,0,0,0,3,34,20,0,0,0,0,31,0|
0,81,0,28,5,41,3,0,76,0,0,40,0,0,0,0,0,58,80,48,0,42,0,38,69,26,0,0,0,0,0,75,0,36,0,0,0,0,0,0,57,60,0,2,0,0,4,0,0,46,0,0,0,20,0,0,0,0,0,10,0,9,0,0,0,39,31,0,0,0,0,16,21,64,0,65,0,0,0,0,0|
0,0,36,0,0,0,42,59,0,0,0,0,45,0,0,60,16,0,51,0,0,0,31,71,0,41,0,0,0,0,0,57,0,0,49,55,0,0,48,14,0,0,0,22,0,23,3,0,0,0,0,0,0,0,0,0,0,69,81,0,0,0,0,0,12,0,0,0,76,30,0,63,7,0,26,0,0,0,0,0,0|
74,75,0,0,0,60,0,0,79,66,0,0,50,54,0,8,71,0,0,0,0,0,0,4,0,40,61,67,0,0,6,0,22,0,0,0,0,73,0,25,0,27,35,0,0,0,0,0,0,14,49,55,0,0,0,0,0,0,0,46,0,0,0,0,0,80,0,0,43,0,0,0,0,68,17,10,23,37,0,0,36|
0,0,69,0,81,0,56,39,0,59,0,0,0,0,31,0,0,0,0,0,0,0,0,0,0,66,25,0,47,0,36,14,0,46,0,0,0,0,0,0,0,0,0,0,5,65,40,23,60,43,44,1,0,0,54,0,0,67,0,0,0,0,0,52,0,4,78,0,0,0,57,0,0,58,63,0,0,0,41,0,0|
72,0,14,23,0,0,0,0,6,0,0,0,0,0,0,0,57,0,0,0,0,0,0,51,0,0,0,73,0,0,0,41,56,0,50,49,31,0,71,0,0,0,22,4,0,0,0,0,0,0,0,0,7,53,0,0,0,61,0,0,0,62,0,0,0,26,0,45,13,0,0,0,0,0,0,0,0,0,28,0,74|
0,0,52,66,0,18,35,0,0,11,0,56,0,70,0,0,75,3,0,45,0,0,0,0,39,0,0,0,0,0,71,0,0,0,13,8,0,72,0,0,37,10,0,48,0,0,57,0,0,6,0,5,0,0,43,12,25,0,0,0,0,2,0,30,0,0,0,19,0,22,0,47,0,46,40,76,0,0,0,0,0|
0,22,77,10,25,61,27,0,57,0,12,53,0,0,0,0,0,0,0,54,0,0,0,0,0,0,0,7,0,0,0,0,32,0,0,0,41,62,52,9,78,0,0,0,60,15,0,8,26,29,68,0,0,75,0,0,0,0,45,73,74,0,0,0,0,0,81,0,11,0,46,56,69,0,0,55,0,3,50,65,16|
0,0,51,0,36,0,16,0,0,0,0,0,0,0,0,61,0,21,0,0,0,0,0,57,35,42,0,10,0,0,0,0,0,0,0,43,0,0,0,76,0,0,0,0,0,0,34,77,0,0,33,74,0,0,65,9,71,44,0,0,60,29,0,3,0,0,50,25,0,0,0,70,79,0,0,48,0,22,30,0,0|
0,0,0,0,34,0,0,0,28,0,0,46,33,0,0,58,0,35,0,0,0,44,0,74,0,0,0,0,26,0,0,0,0,0,40,0,0,0,0,0,0,0,0,0,77,0,0,41,0,0,0,17,0,0,0,0,23,0,0,0,0,0,76,0,0,36,0,71,0,0,0,61,0,7,0,0,0,0,0,47,0|
0,0,0,71,0,2,0,11,0,0,6,0,76,0,0,65,0,0,22,12,75,34,0,0,0,0,46,9,52,58,48,0,0,0,0,0,0,67,0,0,51,0,40,59,0,0,0,0,62,0,30,25,0,0,0,0,26,0,0,0,0,0,0,0,0,17,49,44,0,0,0,0,0,0,0,45,81,0,14,60,0|
80,47,0,0,0,13,5,0,0,0,0,0,0,17,0,2,0,49,0,0,0,0,0,23,0,0,15,81,0,27,0,0,0,0,0,0,0,0,46,0,66,0,0,53,32,0,36,0,0,16,61,0,0,0,0,0,11,0,0,0,34,0,19,0,10,0,0,0,21,0,8,0,0,9,0,0,33,0,0,0,0|
0,0,0,69,70,47,44,5,0,0,0,0,17,60,0,27,0,0,0,0,0,0,76,30,79,63,28,71,0,78,0,0,0,0,26,0,0,65,0,0,21,39,0,0,0,0,0,57,19,51,0,15,0,12,72,73,13,49,80,0,42,45,0,0,0,0,64,0,56,16,67,0,35,0,0,0,7,0,75,0,0|
26,0,0,46,0,0,0,0,0,19,0,0,0,0,0,0,0,0,0,0,0,7,66,0,45,0,0,0,0,65,0,0,0,0,9,48,0,0,54,0,0,74,0,0,0,59,23,0,0,38,0,0,79,0,0,0,32,0,11,5,0,0,0,53,0,0,0,10,0,0,0,28,0,0,0,72,27,47,0,0,52|
13,0,63,0,10,0,71,0,0,55,70,5,0,0,0,0,44,0,74,0,43,0,0,14,34,0,33,47,0,42,38,0,0,0,0,18,12,0,0,0,0,11,0,0,0,0,0,0,3,0,0,0,72,8,0,65,1,0,0,0,27,0,0,0,17,0,75,52,61,0,51,0,0,0,0,0,0,77,37,0,0|
60,0,0,59,22,73,0,0,0,0,0,0,64,0,0,0,56,80,25,0,12,0,0,35,0,77,0,0,0,0,0,0,0,0,0,30,0,0,0,0,0,0,18,7,0,0,24,0,0,26,0,0,65,0,0,0,0,0,53,0,0,0,0,0,21,0,0,0,36,0,68,20,0,54,0,0,29,0,0,0,0|
0,0,0,36,0,0,0,0,0,46,54,0,12,68,0,28,43,45,21,0,0,0,0,0,0,0,0,0,55,0,0,0,0,0,0,0,67,0,0,37,0,26,0,70,51,16,39,0,77,0,0,0,0,74,0,0,0,22,0,34,0,14,0,0,0,0,0,0,81,0,0,49,0,38,0,71,1,0,0,0,4|
41,51,67,40,0,72,77,0,0,33,0,0,21,0,76,0,0,0,0,0,39,81,0,75,0,0,0,61,10,12,0,70,0,0,0,7,0,0,0,30,0,0,0,34,57,0,0,54,0,0,0,0,0,69,0,0,0,0,0,71,0,3,37,43,0,0,38,15,0,62,31,0,0,0,0,0,0,0,0,2,80|
0,0,0,0,0,0,15,33,0,16,0,0,0,0,0,0,35,0,59,0,0,19,0,0,0,0,0,43,0,0,8,72,13,81,0,0,0,0,0,55,45,0,0,0,0,68,0,0,0,0,70,0,0,67,78,0,0,0,0,60,79,77,69,5,6,0,0,0,0,0,0,11,0,0,76,0,0,0,0,41,0|
0,0,0,0,35,81,0,0,49,0,0,42,0,66,13,0,0,79,0,41,0,0,3,37,0,0,0,0,0,32,60,0,0,0,45,73,14,0,0,17,46,0,0,63,0,0,31,0,0,0,0,0,0,0,2,0,74,0,16,50,76,0,0,0,0,0,0,0,0,0,0,0,0,0,0,0,0,0,25,70,0|
0,78,27,8,14,0,0,18,1,0,49,0,0,39,67,37,48,0,0,0,0,0,0,68,62,73,0,5,66,0,0,0,74,56,0,34,0,0,0,10,20,0,0,0,0,0,0,33,0,0,0,0,0,0,0,4,0,38,0,0,21,0,0,80,0,0,0,0,2,0,0,13,0,0,0,0,0,0,0,45,0|
0,0,0,35,11,6,22,15,0,0,0,0,0,0,0,71,0,0,63,0,0,12,0,0,0,7,81,0,0,68,64,0,0,58,0,37,76,0,0,0,0,0,0,18,78,70,77,24,0,13,0,0,0,0,1,0,0,0,0,0,0,0,17,0,26,0,0,62,0,67,0,0,0,55,0,50,0,0,44,57,32|
39,0,0,0,0,0,81,0,0,0,51,0,0,30,0,0,0,0,0,0,0,0,0,0,0,48,34,0,0,0,0,0,8,0,11,45,0,0,0,0,72,25,44,0,2,0,0,0,0,12,0,56,57,0,0,0,0,80,0,31,0,0,0,0,54,0,17,0,0,0,0,0,0,0,0,0,70,73,0,0,42|
0,0,7,0,0,0,0,0,0,0,73,74,0,56,0,0,68,0,0,0,0,0,0,54,0,0,0,24,0,77,44,62,0,0,0,0,0,27,3,0,0,0,0,0,0,72,0,0,0,0,0,0,66,0,0,57,45,0,33,0,0,0,0,0,51,0,22,0,0,50,55,0,0,0,0,0,2,0,47,0,0|
14,32,0,0,38,0,0,0,3,5,41,0,0,0,0,57,0,0,0,0,0,43,0,0,30,75,0,0,0,0,33,0,0,0,0,0,0,0,0,0,0,0,62,12,42,0,54,0,0,79,0,71,0,0,0,0,0,77,47,0,0,0,0,0,0,0,0,64,0,0,0,31,13,0,27,0,0,0,51,81,0|
0,18,0,30,0,0,0,51,0,0,0,29,67,35,0,0,0,0,1,0,0,0,0,17,0,53,14,57,0,0,0,0,0,0,0,38,69,59,0,0,71,73,39,45,0,0,0,43,0,7,0,0,0,0,22,55,0,19,79,0,0,0,0,72,0,0,0,0,0,0,0,0,75,0,36,0,0,0,0,0,0|
0,0,0,56,0,0,0,50,0,2,0,0,27,46,0,0,0,0,67,0,28,6,0,64,20,0,0,54,3,0,29,0,0,0,0,0,0,0,0,5,0,0,0,0,0,0,0,0,37,0,21,0,0,0,0,40,14,0,12,11,0,36,0,0,0,0,70,0,57,0,0,0,0,0,0,41,0,72,0,18,78|
0,0,23,16,0,37,0,0,0,0,61,0,0,7,0,76,0,0,49,25,0,62,0,80,0,0,0,42,6,13,75,0,0,1,41,39,0,0,0,0,0,15,0,81,0,58,0,0,67,0,5,0,51,19,20,0,0,34,71,78,28,68,4,0,0,10,0,12,0,0,32,0,0,0,0,0,14,0,54,22,0|
0,80,0,0,42,54,0,40,0,0,0,0,0,0,0,1,0,0,69,56,0,0,32,0,0,0,0,0,0,0,65,0,36,0,43,0,34,0,0,0,0,47,55,74,35,0,38,0,23,0,0,0,0,78,37,8,0,0,64,0,6,0,10,0,68,0,0,29,30,0,0,0,0,0,0,0,0,21,0,0,0|
0,64,0,0,62,0,65,0,0,13,11,0,0,0,0,0,34,0,2,0,77,0,0,72,0,0,0,0,0,0,0,56,52,40,0,12,0,36,0,0,6,0,4,0,0,0,0,0,10,0,0,0,50,18,0,0,0,3,0,42,26,0,0,1,0,20,0,0,71,0,0,0,0,0,25,0,0,0,0,0,0|
50,13,21,76,0,33,0,0,9,0,0,0,0,4,72,0,0,0,48,0,0,0,0,0,0,64,0,0,0,0,0,0,0,0,0,0,78,0,0,38,0,0,0,0,0,0,0,32,0,0,67,0,23,0,0,0,0,0,0,0,0,0,0,0,0,52,3,0,0,81,0,19,0,16,0,0,55,0,0,58,18|
16,0,40,0,0,0,0,25,0,58,0,0,0,8,28,0,63,0,0,3,20,0,0,0,0,0,0,0,5,0,0,22,0,61,77,0,0,0,27,69,68,0,49,0,0,0,0,48,41,74,0,0,0,0,0,0,0,0,0,72,71,0,0,0,0,0,0,0,78,0,0,0,0,26,37,0,0,0,0,0,0|
71,57,0,0,41,0,0,0,74,0,0,0,0,36,43,0,0,0,0,72,0,59,0,0,0,46,78,35,0,63,0,0,76,0,80,16,0,0,0,0,12,0,0,5,0,0,0,0,0,0,0,0,0,0,9,66,0,0,2,0,0,49,25,0,0,22,73,54,0,0,37,0,0,0,23,8,0,0,0,52,75|
5,0,0,0,0,0,0,0,61,0,0,80,0,0,0,16,0,0,62,0,70,15,58,0,63,71,49,0,0,0,0,6,0,0,0,68,0,0,0,0,33,0,0,8,0,0,0,0,0,0,57,0,0,52,30,0,0,0,0,53,47,37,67,0,0,75,0,0,0,0,0,0,72,0,22,0,34,0,9,0,56|
0,59,0,0,55,0,67,0,0,0,0,49,0,0,9,0,0,0,0,5,0,47,0,16,0,0,0,74,0,8,2,48,19,11,0,0,0,64,18,0,0,0,0,0,0,0,0,0,0,24,0,0,0,80,0,0,0,0,0,27,0,78,0,0,0,0,0,1,0,0,0,0,54,0,0,0,0,0,40,0,0|
0,0,0,17,0,0,0,72,0,0,0,0,0,0,53,0,12,61,0,0,74,36,0,0,65,0,0,0,0,0,40,0,66,67,0,0,0,22,9,0,35,31,37,0,0,0,0,0,0,68,0,0,5,43,0,0,0,58,0,0,0,80,0,0,27,79,0,0,0,0,0,0,0,0,19,0,15,0,0,0,59|
38,0,0,0,0,0,0,0,0,67,0,0,0,0,0,0,55,0,0,50,0,0,29,19,0,0,0,0,0,53,25,0,64,0,0,0,0,0,0,16,59,0,48,0,0,77,79,0,71,49,0,0,0,0,0,0,0,51,0,0,0,0,0,0,0,0,57,8,0,0,62,26,0,0,0,69,0,0,0,0,3|
0,63,8,0,0,0,0,52,0,62,0,0,0,19,79,0,17,0,41,75,0,22,0,67,0,0,0,0,0,28,18,0,0,9,0,0,70,54,0,0,2,76,0,0,26,0,6,0,36,81,0,0,0,15,11,0,43,0,0,55,23,0,0,0,0,12,60,0,0,0,0,0,0,71,0,0,0,0,31,46,0|
0,48,0,0,77,0,11,2,0,6,22,0,25,0,0,0,0,1,0,0,0,0,10,0,0,55,0,52,7,0,31,23,0,0,17,32,0,58,80,0,0,0,0,0,43,54,47,9,66,0,0,0,75,0,74,21,0,0,0,0,61,0,57,70,0,34,40,0,63,46,36,0,0,0,0,0,0,0,76,29,27|
0,0,0,13,0,0,0,0,38,0,0,0,0,0,0,0,0,19,24,32,0,70,0,15,0,0,76,18,0,54,0,44,0,3,0,0,0,0,0,49,10,0,0,25,69,0,52,0,0,65,0,79,0,0,45,77,64,0,21,0,0,0,71,0,0,0,61,0,55,4,0,0,0,0,0,0,0,0,0,0,0|
0,0,0,22,27,0,0,0,0,0,23,57,0,0,0,0,74,64,0,78,0,72,0,0,0,0,0,0,0,73,0,36,0,0,0,0,0,0,0,67,0,0,42,28,0,0,0,0,40,0,0,6,0,0,0,0,0,81,37,0,17,0,80,0,0,0,0,60,1,45,12,0,0,49,0,18,47,0,0,0,0|
0,0,0,21,0,55,0,0,10,0,0,0,0,0,0,0,0,0,17,11,0,0,0,18,0,9,12,80,81,0,57,0,0,0,8,77,0,0,0,0,44,0,0,0,56,0,0,19,1,37,0,7,62,14,70,0,27,0,23,61,0,53,48,0,0,25,0,22,0,0,15,65,0,20,3,0,0,71,42,0,54|
0,11,0,0,47,5,0,0,20,28,58,0,0,14,0,0,2,71,0,0,0,0,59,0,0,0,69,55,1,19,49,0,45,0,37,0,0,18,0,80,0,0,0,0,0,0,0,70,0,0,0,0,0,0,0,0,0,60,0,0,0,0,38,0,0,0,56,0,0,0,0,77,52,23,0,32,0,0,43,0,79|
0,15,0,0,57,0,0,61,46,44,0,35,0,0,0,42,0,76,0,0,0,0,0,0,0,21,0,0,16,6,0,13,31,0,0,69,32,0,0,0,0,0,0,0,0,3,0,0,0,0,10,18,0,55,0,0,79,0,0,0,0,0,0,38,78,0,0,72,80,47,0,0,0,0,0,0,0,14,48,36,0|
0,39,0,0,18,0,0,0,72,31,0,0,0,0,0,0,0,75,0,0,0,0,0,0,13,0,40,41,56,10,0,0,0,0,4,0,16,9,0,64,0,38,12,0,0,0,0,0,25,0,42,77,33,0,0,0,0,0,0,0,0,46,0,48,0,0,0,0,0,52,76,27,60,5,0,59,21,0,0,19,53|
65,68,0,0,0,0,0,69,0,18,55,0,0,0,0,34,0,0,0,0,0,58,0,7,0,20,74,0,21,0,0,32,0,50,0,0,79,77,0,0,11,0,0,0,71,80,0,0,0,0,23,0,0,44,0,0,0,0,5,0,56,0,0,0,30,0,19,43,0,0,39,0,0,0,0,0,0,0,0,0,72|
0,0,49,0,0,0,37,71,0,0,10,0,81,0,0,0,0,17,36,0,19,5,73,0,0,0,0,0,0,15,0,35,62,0,0,0,0,60,0,43,0,0,0,0,0,0,0,22,0,0,0,0,0,0,0,0,0,0,0,68,0,0,40,64,24,23,0,0,0,0,0,50,56,0,45,0,13,0,0,0,61|
0,0,0,0,0,0,0,0,0,0,0,0,0,0,38,0,0,0,79,0,0,0,39,0,0,0,80,14,0,34,58,0,40,17,48,0,0,0,61,20,0,0,0,0,15,32,0,0,0,0,0,0,45,0,0,0,0,13,0,4,0,69,0,0,0,0,62,28,10,0,3,5,78,75,0,67,63,76,0,0,0|
25,0,64,0,0,0,17,0,0,0,0,81,0,0,0,0,49,0,0,0,0,18,61,78,0,19,0,12,24,46,22,0,77,14,0,0,0,0,0,0,76,5,0,71,66,33,0,0,20,0,65,48,0,2,26,0,0,0,0,0,0,0,0,10,38,0,0,42,0,0,0,0,16,0,0,3,0,0,0,0,0|
0,0,37,78,46,8,0,0,40,0,0,76,0,0,74,0,0,62,0,0,0,25,0,0,2,0,73,0,0,0,42,0,0,0,0,0,0,48,0,0,0,0,0,0,59,0,61,17,0,0,0,0,0,77,10,0,50,0,0,0,35,0,58,16,3,0,45,0,0,0,18,0,15,0,21,0,0,0,0,0,7|
56,0,0,73,0,0,0,49,0,35,0,0,16,0,0,0,0,69,0,0,0,0,0,0,0,0,5,0,61,0,0,53,0,0,0,0,1,12,0,34,3,20,0,0,0,18,11,0,0,45,36,4,0,9,0,46,0,0,8,0,0,0,70,0,0,0,0,0,0,0,0,0,0,0,43,0,0,0,55,78,0|
0,0,76,0,50,11,63,0,51,0,0,28,0,0,0,0,78,0,29,0,0,48,0,1,17,0,23,0,0,0,37,74,0,70,0,0,0,0,0,0,0,0,0,0,18,0,27,0,0,25,0,58,46,62,0,0,0,0,40,43,64,22,3,0,0,0,0,32,0,0,0,55,0,0,0,0,54,0,52,0,0|
0,0,18,0,54,0,0,0,0,0,0,0,0,0,0,0,0,0,60,0,30,0,74,0,49,35,52,0,0,0,0,8,0,0,0,0,22,0,0,0,0,0,0,0,64,79,0,72,0,0,0,3,76,39,0,17,19,24,0,0,0,0,0,25,62,0,26,70,0,0,0,0,65,0,0,1,0,13,0,0,0|
2,0,70,33,0,66,0,0,55,48,0,0,0,0,0,0,0,0,0,0,0,11,0,0,28,0,4,17,72,0,32,0,39,49,0,0,13,74,0,0,0,16,0,9,62,0,0,0,0,0,0,0,52,5,0,1,0,20,0,81,0,0,0,78,0,0,0,76,0,0,0,69,0,0,61,0,46,0,0,0,0|
12,30,0,43,29,67,69,75,0,0,0,61,58,0,10,0,0,72,0,53,0,0,0,56,27,0,0,0,45,26,0,0,5,0,0,13,0,0,0,0,0,54,0,0,68,0,0,0,0,47,80,0,28,70,0,34,0,21,39,0,14,0,77,0,0,0,0,33,0,65,0,17,0,81,57,0,25,0,0,0,0|
0,0,35,0,0,65,0,0,22,52,0,26,41,0,0,0,5,0,0,0,79,0,0,0,0,0,0,0,23,0,0,19,80,0,0,0,0,53,30,27,55,0,10,0,11,0,0,0,14,8,0,0,0,0,15,0,0,0,0,0,12,0,0,50,0,0,0,75,72,0,0,0,0,0,0,28,18,0,0,0,0|
0,52,0,0,3,71,60,0,0,27,0,0,8,23,20,0,0,25,13,0,0,0,0,10,0,0,0,0,0,48,0,18,79,0,0,0,37,63,70,0,17,0,0,0,67,0,26,73,54,19,0,0,0,0,16,53,0,0,0,59,0,0,0,66,56,0,0,0,0,0,0,0,0,14,72,0,0,0,0,0,0|
0,0,0,0,0,0,0,19,0,30,2,50,0,0,0,0,69,0,0,10,0,61,37,0,0,0,68,0,0,45,0,0,0,0,65,42,17,0,0,0,28,0,74,0,16,0,0,0,0,0,0,0,20,0,27,0,0,0,0,0,0,0,22,81,0,6,8,55,67,0,54,44,73,41,0,0,0,34,0,0,47|
0,0,0,0,0,63,0,0,0,0,72,0,55,64,59,0,0,0,0,0,0,0,45,0,0,0,2,0,0,0,21,4,0,0,0,0,0,8,67,0,53,3,58,0,0,0,0,0,35,62,0,0,0,0,17,0,0,78,30,0,54,6,26,0,41,40,10,0,0,77,0,0,0,76,38,0,0,0,0,0,13|
0,0,0,0,0,0,0,0,0,0,0,0,49,0,0,67,0,0,0,0,0,0,48,0,0,62,0,56,0,0,13,2,0,44,0,0,0,0,69,18,0,0,45,0,29,5,0,0,42,0,0,0,64,0,0,0,0,0,0,0,7,65,0,0,0,0,0,80,0,0,66,0,36,0,0,0,0,0,61,0,20|
0,21,0,47,26,36,40,0,0,0,0,44,0,0,0,46,23,0,77,0,27,0,0,0,14,16,20,22,73,0,0,0,0,0,74,60,0,15,0,0,32,42,0,0,0,0,0,12,0,0,0,0,10,68,34,0,39,11,0,0,0,48,56,0,0,28,0,0,49,0,0,0,0,0,5,0,51,0,0,0,0|
11,9,0,0,30,0,0,0,81,36,43,0,48,0,19,0,0,0,0,67,0,23,75,0,40,0,72,0,0,0,0,0,0,0,0,0,77,37,51,0,0,66,0,0,80,45,76,0,0,0,22,0,0,65,0,0,0,0,0,0,0,74,0,0,0,56,20,0,0,32,33,0,0,0,0,0,60,0,0,55,0|
0,0,0,18,0,0,0,56,7,0,37,0,57,0,58,80,0,73,0,51,3,0,0,41,19,0,13,33,20,64,0,34,0,0,38,0,43,46,0,0,0,78,0,0,0,11,0,0,4,0,0,0,60,0,0,0,0,0,0,36,1,0,0,79,59,0,0,31,0,0,0,0,0,0,0,39,0,0,0,0,68|
0,0,33,0,67,0,0,20,0,0,81,65,0,5,0,13,0,0,76,0,0,0,1,60,55,0,0,0,54,0,0,0,14,0,32,0,0,0,0,47,0,0,0,75,40,0,0,80,0,0,0,39,29,0,53,31,77,73,0,51,0,0,0,4,0,43,0,11,0,27,0,0,0,0,71,0,0,0,0,0,0|
0,0,28,54,0,0,0,0,0,0,0,0,0,42,0,0,0,0,39,0,0,4,0,0,74,0,0,0,0,0,0,12,0,0,0,75,68,0,34,0,0,0,0,0,0,0,32,0,81,0,0,67,0,79,0,0,0,46,70,0,72,0,0,0,0,57,0,0,0,0,38,1,0,0,31,0,43,8,3,0,0|
0,0,0,12,0,58,49,0,71,0,0,27,0,0,0,0,33,0,0,0,78,0,64,0,0,0,0,77,0,76,0,0,0,6,0,0,0,0,11,0,81,7,0,0,0,8,73,0,69,0,53,46,19,23,0,61,0,75,14,0,0,32,47,0,0,0,0,0,70,37,0,0,59,67,16,0,52,0,0,0,9|
0,0,0,0,75,0,0,0,0,0,0,19,0,0,0,39,41,0,0,0,0,60,0,48,23,0,0,0,74,0,0,0,6,34,0,0,0,0,0,0,63,0,0,0,22,26,0,0,0,0,0,57,0,0,0,0,0,0,0,0,0,0,20,62,0,72,0,47,0,58,0,0,17,13,0,15,36,0,0,0,66|
0,0,0,32,17,0,0,23,14,0,0,0,24,0,63,11,0,0,0,0,35,0,0,13,5,0,75,0,15,0,0,0,0,0,0,54,10,0,6,0,0,57,61,0,27,0,0,0,0,0,8,0,0,0,71,64,0,0,0,0,19,0,0,36,0,0,42,0,0,70,0,0,0,18,47,0,0,4,0,37,31|
54,34,0,0,9,0,29,0,0,81,0,0,0,0,2,72,42,0,15,0,0,0,0,0,0,1,32,0,30,56,0,24,0,0,47,0,0,45,0,0,7,0,0,49,0,0,5,0,0,0,0,0,36,0,0,78,0,0,0,79,0,0,0,0,0,0,37,0,0,0,4,12,0,0,39,40,16,0,0,0,65|
0,0,41,0,80,68,0,0,30,65,0,54,0,15,0,9,38,4,0,0,24,0,0,0,0,0,37,0,0,0,0,0,7,0,0,0,0,0,60,33,0,18,13,21,73,0,12,0,0,40,74,23,70,0,0,0,0,0,0,0,0,0,0,0,0,0,0,0,52,0,0,0,0,0,0,0,0,19,0,0,0|
0,0,0,27,0,0,0,0,0,0,18,0,51,0,0,0,0,74,0,69,0,54,0,0,7,0,11,0,62,0,0,0,0,63,0,0,0,0,0,15,31,0,0,16,0,0,0,0,0,0,0,0,0,0,0,0,0,36,0,41,0,66,0,0,0,0,0,0,0,0,17,0,6,0,0,0,0,0,0,56,0|
0,0,25,0,0,45,43,0,0,0,0,0,0,78,34,0,0,70,0,0,18,0,0,58,0,0,0,0,0,0,0,38,42,0,0,0,0,0,0,0,0,68,36,0,9,0,14,0,0,1,50,0,0,0,0,7,44,0,0,74,15,0,0,55,0,69,39,0,73,0,0,0,0,27,0,0,0,0,0,0,0|
0,0,0,0,0,0,0,0,0,0,0,36,0,26,0,0,47,46,0,0,0,0,19,50,0,0,0,0,75,0,5,0,27,0,0,0,0,28,0,59,39,0,0,0,0,61,0,11,29,35,0,63,0,0,62,33,0,40,0,9,0,0,0,0,0,31,0,49,0,38,0,0,0,25,7,0,69,0,0,0,0|
31,0,0,7,0,0,18,0,0,14,0,0,69,0,0,0,0,33,0,0,0,0,0,0,0,61,64,0,0,0,78,0,0,0,59,0,0,42,0,0,29,24,77,0,0,30,0,0,0,0,0,47,55,25,23,0,72,54,57,0,0,0,0,63,79,0,27,0,0,0,0,22,34,0,0,0,35,43,0,0,0|
64,0,39,55,0,10,0,0,0,25,77,58,0,13,8,21,0,0,0,0,0,0,0,40,0,0,71,0,41,0,0,73,18,0,76,0,0,0,0,53,0,0,80,0,0,0,0,0,0,0,0,0,0,0,81,0,22,0,0,0,38,59,0,0,0,0,0,0,0,48,0,0,0,42,0,0,0,0,46,49,26|];